1 1 2 0
1 -1 -3 0
1 1 -4 0
1 -1 5 0
1 -1 -6 0
1 2 4 0
1 -2 -1 0
1 2 -6 0
1 -7 8 0
1 7 9 0
1 7 -10 0
1 -7 -3 0
1 -7 11 0
1 -7 12 0
1 7 6 0
1 10 -9 0
1 10 -3 0
1 10 4 0
1 -10 -11 0
1 10 12 0
1 -10 5 0
1 -10 6 0
1 -4 13 0
1 -4 -14 0
1 4 -15 0
1 -4 10 0
1 -4 -2 0
1 4 16 0
1 -4 17 0
1 -4 18 0
1 -4 7 0
1 4 -1 0
1 -6 -13 0
1 -6 14 0
1 6 -15 0
1 6 -10 0
1 6 2 0
1 6 4 0
1 6 19 0
1 6 17 0
1 -6 -18 0
1 6 -1 0
1 -3 -13 0
1 -3 20 0
1 -3 21 0
1 3 10 0
1 3 2 0
1 -3 22 0
1 -3 19 0
1 3 23 0
1 -3 -7 0
1 -3 -1 0
1 3 -5 0
1 5 -13 0
1 5 20 0
1 5 -21 0
1 5 -10 0
1 -5 2 0
1 5 -3 0
1 5 -19 0
1 5 23 0
1 -5 -24 0
1 -5 1 0
1 18 9 0
1 18 15 0
1 -18 4 0
1 -18 11 0
1 18 12 0
1 -18 24 0
1 15 8 0
1 15 -9 0
1 15 -21 0
1 15 -4 0
1 -15 -11 0
1 15 -12 0
1 15 -18 0
1 -15 -6 0
1 -17 8 0
1 -17 9 0
1 -17 -14 0
1 -17 25 0
1 -17 4 0
1 17 11 0
1 17 -12 0
1 -17 23 0
1 17 -26 0
1 17 -6 0
1 14 -8 0
1 -14 -9 0
1 -14 -27 0
1 14 20 0
1 -14 25 0
1 -14 4 0
1 14 12 0
1 -14 -17 0
1 14 -28 0
1 -14 -6 0
1 12 -29 0
1 12 -30 0
1 12 -9 0
1 12 -14 0
1 -12 -15 0
1 -12 10 0
1 12 31 0
1 12 32 0
1 -12 17 0
1 -12 18 0
1 12 7 0
1 -12 33 0
1 -9 30 0
1 -9 -14 0
1 -9 -15 0
1 -9 -34 0
1 -9 31 0
1 -9 -32 0
1 9 -12 0
1 9 18 0
1 9 33 0
1 -11 8 0
1 11 35 0
1 11 14 0
1 -11 -34 0
1 -11 36 0
1 11 -19 0
1 -11 18 0
1 -11 7 0
1 11 -33 0
1 8 35 0
1 8 -13 0
1 8 -14 0
1 8 -15 0
1 8 -10 0
1 8 34 0
1 8 11 0
1 -8 -36 0
1 -8 -17 0
1 -8 -18 0
1 8 -33 0
1 -32 -30 0
1 32 27 0
1 32 -25 0
1 32 -12 0
1 -32 -19 0
1 32 -28 0
1 -30 9 0
1 30 -27 0
1 -30 25 0
1 30 -12 0
1 -31 -29 0
1 -31 -9 0
1 -31 27 0
1 31 -36 0
1 -31 12 0
1 -31 -26 0
1 29 35 0
1 29 9 0
1 -29 -25 0
1 -29 31 0
1 29 -12 0
1 -29 28 0
1 -29 26 0
1 -26 -29 0
1 26 -30 0
1 26 -14 0
1 26 25 0
1 -26 -31 0
1 -26 -17 0
1 25 29 0
1 -25 -30 0
1 -25 14 0
1 25 -31 0
1 -25 32 0
1 25 26 0
1 -28 29 0
1 -28 14 0
1 28 -27 0
1 -28 -37 0
1 28 34 0
1 -28 -32 0
1 28 17 0
1 28 38 0
1 27 29 0
1 -27 -14 0
1 -27 37 0
1 27 -34 0
1 27 31 0
1 -27 -32 0
1 27 -17 0
1 -27 -28 0
1 27 38 0
1 -27 -33 0
1 -24 -39 0
1 24 -40 0
1 24 -3 0
1 -24 -41 0
1 24 -18 0
1 -24 5 0
1 21 39 0
1 -21 -15 0
1 21 40 0
1 -21 3 0
1 -21 -42 0
1 21 -24 0
1 21 5 0
1 -23 -20 0
1 23 -39 0
1 -23 40 0
1 -23 43 0
1 23 -44 0
1 23 3 0
1 -23 -17 0
1 23 41 0
1 -23 -45 0
1 23 -5 0
1 20 -41 0
1 20 14 0
1 -20 39 0
1 -20 43 0
1 20 44 0
1 20 -3 0
1 20 42 0
1 20 -23 0
1 -20 46 0
1 -20 -45 0
1 20 -5 0
1 40 41 0
1 -40 35 0
1 -40 -13 0
1 -40 -20 0
1 -40 -21 0
1 40 36 0
1 -40 19 0
1 -40 -23 0
1 41 -35 0
1 -41 13 0
1 41 -20 0
1 41 21 0
1 41 -40 0
1 -41 36 0
1 -41 19 0
1 41 23 0
1 39 20 0
1 -39 21 0
1 39 -23 0
1 -39 24 0
1 -42 -20 0
1 42 -39 0
1 -42 -21 0
1 -42 23 0
1 42 -24 0
1 19 -8 0
1 19 13 0
1 -19 -40 0
1 -19 -43 0
1 19 3 0
1 19 -4 0
1 -19 11 0
1 -19 32 0
1 -19 -41 0
1 19 -46 0
1 -19 45 0
1 -19 5 0
1 -13 8 0
1 -13 30 0
1 13 -40 0
1 -13 -43 0
1 -13 3 0
1 -13 -4 0
1 -13 11 0
1 13 19 0
1 -13 41 0
1 13 45 0
1 13 5 0
1 -13 -6 0
1 36 -47 0
1 36 8 0
1 -36 40 0
1 36 22 0
1 36 16 0
1 -36 -11 0
1 36 41 0
1 -36 -45 0
1 36 -48 0
1 -35 47 0
1 -35 -8 0
1 -35 -40 0
1 -35 43 0
1 -35 -44 0
1 35 22 0
1 -35 -16 0
1 -35 11 0
1 35 36 0
1 -35 -41 0
1 35 46 0
1 35 -45 0
1 44 35 0
1 44 -13 0
1 44 37 0
1 44 -34 0
1 44 19 0
1 44 23 0
1 44 -38 0
1 45 35 0
1 -45 13 0
1 -45 44 0
1 45 -37 0
1 45 -34 0
1 -45 -36 0
1 45 -19 0
1 45 -23 0
1 -45 -33 0
1 43 -35 0
1 -43 -20 0
1 -43 -36 0
1 -43 23 0
1 -43 -46 0
1 46 35 0
1 46 -20 0
1 -46 -43 0
1 -46 19 0
1 -46 23 0
1 -34 8 0
1 34 9 0
1 34 -27 0
1 -34 -44 0
1 34 22 0
1 -34 11 0
1 -34 16 0
1 -34 -12 0
1 -34 -28 0
1 34 45 0
1 34 -48 0
1 -34 -33 0
1 -33 47 0
1 33 -9 0
1 -33 27 0
1 33 44 0
1 -33 22 0
1 -33 34 0
1 -33 -16 0
1 -33 11 0
1 33 -12 0
1 -33 28 0
1 33 -48 0
1 -37 -47 0
1 -37 -27 0
1 -37 44 0
1 -37 22 0
1 37 -16 0
1 37 45 0
1 -38 -47 0
1 -38 44 0
1 -38 -37 0
1 -38 -16 0
1 -38 -28 0
1 -38 -45 0
1 -16 47 0
1 -16 35 0
1 16 37 0
1 16 34 0
1 -16 -4 0
1 -16 -36 0
1 -16 38 0
1 -16 33 0
1 -47 34 0
1 -47 -36 0
1 47 6 0
1 -47 -38 0
1 22 -35 0
1 22 -37 0
1 -22 -3 0
1 -22 -34 0
1 22 -36 0
1 22 -38 0
1 22 48 0
1 -22 -33 0
1 -48 35 0
1 48 37 0
1 48 22 0
1 48 -34 0
1 48 36 0
1 -48 5 0
1 -48 33 0
